n= 1
m= 30
1000
155	36	6
84	56	8
76	63	9
40	48	8
156	40	5
113	25	5
187	54	9
137	45	9
49	64	8
117	56	7
34	63	9
113	40	5
91	48	8
199	72	9
183	36	6
152	49	7
105	54	9
21	42	7
169	54	9
91	40	5
187	64	8
193	48	6
16	49	7
191	30	5
176	56	8
134	35	5
27	36	6
134	48	8
120	35	5
94	49	7
